nSpots = 10;
damage = [10, 8, 4, 2, 6, 9, 5, 3, 8, 10];
SYMB = {'天','澤','⽕','雷','⾵','⽔','⼭','地'};
group = [{1,4,6}, {1,2,6,7}, {1,3,6,8}, {1,2,3},
 {2,9,10}, {5,6,8,10}, {7,8,10}, {1,3,5}]; 
 size = 2;